# Solution for model Food_Bank
# Objective value = 1.0942813333004317e+05
x_1_44 1
x_1_198 1
x_1_202 1
x_1_47 1
x_1_197 1
x_1_199 1
x_1_29 1
x_1_97 1
x_1_15 1
x_1_43 1
x_1_123 1
x_1_42 0
x_1_205 1
x_1_122 1
x_1_133 0
x_1_220 1
x_1_101 1
x_1_86 1
x_1_17 1
x_1_130 1
x_1_208 1
x_1_214 1
x_1_146 0
y_44_93 0
y_44_80 1
y_44_68 0
y_44_67 0
y_44_63 0
y_44_92 0
y_44_82 0
y_44_66 0
y_44_56 0
y_44_40 0
y_198_93 0
y_198_80 0
y_198_68 0
y_198_67 0
y_198_63 0
y_198_92 0
y_198_82 0
y_198_66 0
y_198_56 0
y_198_40 1
y_202_93 0
y_202_80 0
y_202_68 0
y_202_67 1
y_202_63 0
y_202_92 0
y_202_82 0
y_202_66 0
y_202_56 0
y_202_40 0
y_47_93 0
y_47_80 0
y_47_68 0
y_47_67 1
y_47_63 0
y_47_92 0
y_47_82 0
y_47_66 0
y_47_56 0
y_47_40 0
y_197_93 1
y_197_80 0
y_197_68 0
y_197_67 0
y_197_63 0
y_197_92 0
y_197_82 0
y_197_66 0
y_197_56 0
y_197_40 0
y_199_93 0
y_199_80 0
y_199_68 1
y_199_67 0
y_199_63 0
y_199_92 0
y_199_82 0
y_199_66 0
y_199_56 0
y_199_40 0
y_29_93 0
y_29_80 0
y_29_68 0
y_29_67 0
y_29_63 0
y_29_92 0
y_29_82 0
y_29_66 1
y_29_56 0
y_29_40 0
y_97_93 0
y_97_80 1
y_97_68 0
y_97_67 0
y_97_63 0
y_97_92 0
y_97_82 0
y_97_66 0
y_97_56 0
y_97_40 0
y_15_93 1
y_15_80 0
y_15_68 0
y_15_67 0
y_15_63 0
y_15_92 0
y_15_82 0
y_15_66 0
y_15_56 0
y_15_40 0
y_43_93 0
y_43_80 0
y_43_68 0
y_43_67 0
y_43_63 0
y_43_92 1
y_43_82 0
y_43_66 0
y_43_56 0
y_43_40 0
y_123_93 0
y_123_80 0
y_123_68 0
y_123_67 0
y_123_63 0
y_123_92 0
y_123_82 0
y_123_66 0
y_123_56 1
y_123_40 0
y_42_93 0
y_42_80 0
y_42_68 0
y_42_67 0
y_42_63 0
y_42_92 0
y_42_82 0
y_42_66 0
y_42_56 0
y_42_40 0
y_205_93 0
y_205_80 0
y_205_68 0
y_205_67 0
y_205_63 0
y_205_92 0
y_205_82 0
y_205_66 1
y_205_56 0
y_205_40 0
y_122_93 0
y_122_80 0
y_122_68 0
y_122_67 0
y_122_63 0
y_122_92 0
y_122_82 1
y_122_66 0
y_122_56 0
y_122_40 0
y_133_93 0
y_133_80 0
y_133_68 0
y_133_67 0
y_133_63 0
y_133_92 0
y_133_82 0
y_133_66 0
y_133_56 0
y_133_40 0
y_220_93 0
y_220_80 0
y_220_68 0
y_220_67 0
y_220_63 0
y_220_92 0
y_220_82 1
y_220_66 0
y_220_56 0
y_220_40 0
y_101_93 0
y_101_80 0
y_101_68 0
y_101_67 0
y_101_63 0
y_101_92 1
y_101_82 0
y_101_66 0
y_101_56 0
y_101_40 0
y_86_93 0
y_86_80 0
y_86_68 0
y_86_67 0
y_86_63 1
y_86_92 0
y_86_82 0
y_86_66 0
y_86_56 0
y_86_40 0
y_17_93 0
y_17_80 0
y_17_68 1
y_17_67 0
y_17_63 0
y_17_92 0
y_17_82 0
y_17_66 0
y_17_56 0
y_17_40 0
y_130_93 0
y_130_80 0
y_130_68 0
y_130_67 0
y_130_63 1
y_130_92 0
y_130_82 0
y_130_66 0
y_130_56 0
y_130_40 0
y_208_93 0
y_208_80 0
y_208_68 0
y_208_67 0
y_208_63 0
y_208_92 0
y_208_82 0
y_208_66 0
y_208_56 0
y_208_40 1
y_214_93 0
y_214_80 0
y_214_68 0
y_214_67 0
y_214_63 0
y_214_92 0
y_214_82 0
y_214_66 0
y_214_56 1
y_214_40 0
y_146_93 0
y_146_80 0
y_146_68 0
y_146_67 0
y_146_63 0
y_146_92 0
y_146_82 0
y_146_66 0
y_146_56 0
y_146_40 0
aFP_1_44 1.0297990133150215e+04
aFP_1_198 7806.83063343777
aFP_1_202 3.5259293625430905e+03
aFP_1_47 3.5259293623371459e+03
aFP_1_197 1.3541768222415141e+04
aFP_1_199 9576.3093642897
aFP_1_29 2.1676032891425270e+03
aFP_1_97 1.0297990133298412e+04
aFP_1_15 1.3541768222632481e+04
aFP_1_43 1.8235951281957782e+03
aFP_1_123 3.5167048579579732e+03
aFP_1_42 0
aFP_1_205 2.1676032889297280e+03
aFP_1_122 1.8989788321058579e+04
aFP_1_133 0
aFP_1_220 1.8989788321784425e+04
aFP_1_101 2.7718302943208214e+03
aFP_1_86 7.4370812098287834e+03
aFP_1_17 9576.30936415086
aFP_1_130 7.4370812101289685e+03
aFP_1_208 7.8068306334378376e+03
aFP_1_214 3.5167048580688693e+03
aFP_1_146 0
aPZ_44_93 0
aPZ_198_93 0
aPZ_202_93 0
aPZ_47_93 0
aPZ_197_93 1.3541768222415141e+04
aPZ_199_93 0
aPZ_29_93 0
aPZ_97_93 0
aPZ_15_93 1.3541768222632481e+04
aPZ_43_93 0
aPZ_123_93 0
aPZ_42_93 0
aPZ_205_93 0
aPZ_122_93 0
aPZ_133_93 0
aPZ_220_93 0
aPZ_101_93 0
aPZ_86_93 0
aPZ_17_93 0
aPZ_130_93 0
aPZ_208_93 0
aPZ_214_93 0
aPZ_146_93 0
aPZ_44_80 1.0297990133150215e+04
aPZ_198_80 0
aPZ_202_80 0
aPZ_47_80 0
aPZ_197_80 0
aPZ_199_80 0
aPZ_29_80 0
aPZ_97_80 1.0297990133298412e+04
aPZ_15_80 0
aPZ_43_80 0
aPZ_123_80 0
aPZ_42_80 0
aPZ_205_80 0
aPZ_122_80 0
aPZ_133_80 0
aPZ_220_80 0
aPZ_101_80 0
aPZ_86_80 0
aPZ_17_80 0
aPZ_130_80 0
aPZ_208_80 0
aPZ_214_80 0
aPZ_146_80 0
aPZ_44_68 0
aPZ_198_68 0
aPZ_202_68 0
aPZ_47_68 0
aPZ_197_68 0
aPZ_199_68 9576.3093642897
aPZ_29_68 0
aPZ_97_68 0
aPZ_15_68 0
aPZ_43_68 0
aPZ_123_68 0
aPZ_42_68 0
aPZ_205_68 0
aPZ_122_68 0
aPZ_133_68 0
aPZ_220_68 0
aPZ_101_68 0
aPZ_86_68 0
aPZ_17_68 9576.30936415086
aPZ_130_68 0
aPZ_208_68 0
aPZ_214_68 0
aPZ_146_68 0
aPZ_44_67 0
aPZ_198_67 0
aPZ_202_67 3.5259293625430905e+03
aPZ_47_67 3.5259293623371459e+03
aPZ_197_67 0
aPZ_199_67 0
aPZ_29_67 0
aPZ_97_67 0
aPZ_15_67 0
aPZ_43_67 0
aPZ_123_67 0
aPZ_42_67 0
aPZ_205_67 0
aPZ_122_67 0
aPZ_133_67 0
aPZ_220_67 0
aPZ_101_67 0
aPZ_86_67 0
aPZ_17_67 0
aPZ_130_67 0
aPZ_208_67 0
aPZ_214_67 0
aPZ_146_67 0
aPZ_44_63 0
aPZ_198_63 0
aPZ_202_63 0
aPZ_47_63 0
aPZ_197_63 0
aPZ_199_63 0
aPZ_29_63 0
aPZ_97_63 0
aPZ_15_63 0
aPZ_43_63 0
aPZ_123_63 0
aPZ_42_63 0
aPZ_205_63 0
aPZ_122_63 0
aPZ_133_63 0
aPZ_220_63 0
aPZ_101_63 0
aPZ_86_63 7.4370812098287834e+03
aPZ_17_63 0
aPZ_130_63 7.4370812101289685e+03
aPZ_208_63 0
aPZ_214_63 0
aPZ_146_63 0
aPZ_44_92 0
aPZ_198_92 0
aPZ_202_92 0
aPZ_47_92 0
aPZ_197_92 0
aPZ_199_92 0
aPZ_29_92 0
aPZ_97_92 0
aPZ_15_92 0
aPZ_43_92 1.8235951281957782e+03
aPZ_123_92 0
aPZ_42_92 0
aPZ_205_92 0
aPZ_122_92 0
aPZ_133_92 0
aPZ_220_92 0
aPZ_101_92 2.7718302943208214e+03
aPZ_86_92 0
aPZ_17_92 0
aPZ_130_92 0
aPZ_208_92 0
aPZ_214_92 0
aPZ_146_92 0
aPZ_44_82 0
aPZ_198_82 0
aPZ_202_82 0
aPZ_47_82 0
aPZ_197_82 0
aPZ_199_82 0
aPZ_29_82 0
aPZ_97_82 0
aPZ_15_82 0
aPZ_43_82 0
aPZ_123_82 0
aPZ_42_82 0
aPZ_205_82 0
aPZ_122_82 1.8989788321058579e+04
aPZ_133_82 0
aPZ_220_82 1.8989788321784425e+04
aPZ_101_82 0
aPZ_86_82 0
aPZ_17_82 0
aPZ_130_82 0
aPZ_208_82 0
aPZ_214_82 0
aPZ_146_82 0
aPZ_44_66 0
aPZ_198_66 0
aPZ_202_66 0
aPZ_47_66 0
aPZ_197_66 0
aPZ_199_66 0
aPZ_29_66 2.1676032891425270e+03
aPZ_97_66 0
aPZ_15_66 0
aPZ_43_66 0
aPZ_123_66 0
aPZ_42_66 0
aPZ_205_66 2.1676032889297280e+03
aPZ_122_66 0
aPZ_133_66 0
aPZ_220_66 0
aPZ_101_66 0
aPZ_86_66 0
aPZ_17_66 0
aPZ_130_66 0
aPZ_208_66 0
aPZ_214_66 0
aPZ_146_66 0
aPZ_44_56 0
aPZ_198_56 0
aPZ_202_56 0
aPZ_47_56 0
aPZ_197_56 0
aPZ_199_56 0
aPZ_29_56 0
aPZ_97_56 0
aPZ_15_56 0
aPZ_43_56 0
aPZ_123_56 3.5167048579579732e+03
aPZ_42_56 0
aPZ_205_56 0
aPZ_122_56 0
aPZ_133_56 0
aPZ_220_56 0
aPZ_101_56 0
aPZ_86_56 0
aPZ_17_56 0
aPZ_130_56 0
aPZ_208_56 0
aPZ_214_56 3.5167048580688693e+03
aPZ_146_56 0
aPZ_44_40 0
aPZ_198_40 7806.83063343777
aPZ_202_40 0
aPZ_47_40 0
aPZ_197_40 0
aPZ_199_40 0
aPZ_29_40 0
aPZ_97_40 0
aPZ_15_40 0
aPZ_43_40 0
aPZ_123_40 0
aPZ_42_40 0
aPZ_205_40 0
aPZ_122_40 0
aPZ_133_40 0
aPZ_220_40 0
aPZ_101_40 0
aPZ_86_40 0
aPZ_17_40 0
aPZ_130_40 0
aPZ_208_40 7.8068306334378376e+03
aPZ_214_40 0
aPZ_146_40 0
nT_1_44 2
nT_1_198 1
nT_1_202 1
nT_1_47 1
nT_1_197 2
nT_1_199 1
nT_1_29 1
nT_1_97 2
nT_1_15 2
nT_1_43 1
nT_1_123 1
nT_1_42 0
nT_1_205 1
nT_1_122 2
nT_1_133 0
nT_1_220 2
nT_1_101 1
nT_1_86 1
nT_1_17 1
nT_1_130 1
nT_1_208 1
nT_1_214 1
nT_1_146 0
ort_1_44 80
ort_1_198 7.9999999999997016e+01
ort_1_202 8.0000000000821629e+01
ort_1_47 7.9999999999947988e+01
ort_1_197 8.0000000000000810e+01
ort_1_199 8.0000000000323240e+01
ort_1_29 8.0000000001174087e+01
ort_1_97 8.0000000000336385e+01
ort_1_15 8.0000000000393314e+01
ort_1_43 8.0000000002677254e+01
ort_1_123 7.9999999999505150e+01
ort_1_42 0
ort_1_205 7.9999999999861672e+01
ort_1_122 7.9999999999997556e+01
ort_1_133 0
ort_1_220 8.0000000000452246e+01
ort_1_101 1.1999999999990150e+02
ort_1_86 8.0000000000316746e+01
ort_1_17 7.9999999999908738e+01
ort_1_130 8.0000000000893337e+01
ort_1_208 7.9999999999990990e+01
ort_1_214 8.0000000000491383e+01
ort_1_146 0
opt_1_44 7.9478433826675825e+01
opt_1_198 7.9469658468325122e+01
opt_1_202 7.9617036866027817e+01
opt_1_47 7.9610370198497790e+01
opt_1_197 7.9056244922213381e+01
opt_1_199 7.9207851198775415e+01
opt_1_29 7.9564953170050288e+01
opt_1_97 79.1584338270048
opt_1_15 7.8989578255928365e+01
opt_1_43 7.9575486912934139e+01
opt_1_123 7.9484164756607242e+01
opt_1_42 0
opt_1_205 7.9504953168748514e+01
opt_1_122 78.6371772506113
opt_1_133 0
opt_1_220 7.8630510584363023e+01
opt_1_101 1.1940140848518547e+02
opt_1_86 7.9161479273158633e+01
opt_1_17 7.9047851198367866e+01
opt_1_130 7.9154812607053557e+01
opt_1_208 7.9136325134985768e+01
opt_1_214 7.9344164757587933e+01
opt_1_146 0
dt_44_93 0
dt_44_80 6.0202965466026672e+00
dt_44_68 0
dt_44_67 0
dt_44_63 0
dt_44_92 0
dt_44_82 0
dt_44_66 0
dt_44_56 0
dt_44_40 0
dt_198_93 0
dt_198_80 0
dt_198_68 0
dt_198_67 0
dt_198_63 0
dt_198_92 0
dt_198_82 0
dt_198_66 0
dt_198_56 0
dt_198_40 4.6603907217033669e+00
dt_202_93 0
dt_202_80 0
dt_202_68 0
dt_202_67 3.5860752733191088e+00
dt_202_63 0
dt_202_92 0
dt_202_82 0
dt_202_66 0
dt_202_56 0
dt_202_40 0
dt_47_93 0
dt_47_80 0
dt_47_68 0
dt_47_67 3.5860752768182178e+00
dt_47_63 0
dt_47_92 0
dt_47_82 0
dt_47_66 0
dt_47_56 0
dt_47_40 0
dt_197_93 7.0036188778453985e+00
dt_197_80 0
dt_197_68 0
dt_197_67 0
dt_197_63 0
dt_197_92 0
dt_197_82 0
dt_197_66 0
dt_197_56 0
dt_197_40 0
dt_199_93 0
dt_199_80 0
dt_199_68 5.3997082767978464e+00
dt_199_67 0
dt_199_63 0
dt_199_92 0
dt_199_82 0
dt_199_66 0
dt_199_56 0
dt_199_40 0
dt_29_93 0
dt_29_80 0
dt_29_68 0
dt_29_67 0
dt_29_63 0
dt_29_92 0
dt_29_82 0
dt_29_66 2.7906611448796532e+00
dt_29_56 0
dt_29_40 0
dt_97_93 0
dt_97_80 6.0202965458733857e+00
dt_97_68 0
dt_97_67 0
dt_97_63 0
dt_97_92 0
dt_97_82 0
dt_97_66 0
dt_97_56 0
dt_97_40 0
dt_15_93 7.0036188770553593e+00
dt_15_80 0
dt_15_68 0
dt_15_67 0
dt_15_63 0
dt_15_92 0
dt_15_82 0
dt_15_66 0
dt_15_56 0
dt_15_40 0
dt_43_93 0
dt_43_80 0
dt_43_68 0
dt_43_67 0
dt_43_63 0
dt_43_92 3.0741405829389437e+00
dt_43_82 0
dt_43_66 0
dt_43_56 0
dt_43_40 0
dt_123_93 0
dt_123_80 0
dt_123_68 0
dt_123_67 0
dt_123_63 0
dt_123_92 0
dt_123_82 0
dt_123_66 0
dt_123_56 3.1588467002854945e+00
dt_123_40 0
dt_42_93 0
dt_42_80 0
dt_42_68 0
dt_42_67 0
dt_42_63 0
dt_42_92 0
dt_42_82 0
dt_42_66 0
dt_42_56 0
dt_42_40 0
dt_205_93 0
dt_205_80 0
dt_205_68 0
dt_205_67 0
dt_205_63 0
dt_205_92 0
dt_205_82 0
dt_205_66 2.7906611511256338e+00
dt_205_56 0
dt_205_40 0
dt_122_93 0
dt_122_80 0
dt_122_68 0
dt_122_67 0
dt_122_63 0
dt_122_92 0
dt_122_82 8.4464259123705538e+00
dt_122_66 0
dt_122_56 0
dt_122_40 0
dt_133_93 0
dt_133_80 0
dt_133_68 0
dt_133_67 0
dt_133_63 0
dt_133_92 0
dt_133_82 0
dt_133_66 0
dt_133_56 0
dt_133_40 0
dt_220_93 0
dt_220_80 0
dt_220_68 0
dt_220_67 0
dt_220_63 0
dt_220_92 0
dt_220_82 8.44642591007206
dt_220_66 0
dt_220_56 0
dt_220_40 0
dt_101_93 0
dt_101_80 0
dt_101_68 0
dt_101_67 0
dt_101_63 0
dt_101_92 3.0741406030127956e+00
dt_101_82 0
dt_101_66 0
dt_101_56 0
dt_101_40 0
dt_86_93 0
dt_86_80 0
dt_86_68 0
dt_86_67 0
dt_86_63 4.5309784227430674e+00
dt_86_92 0
dt_86_82 0
dt_86_66 0
dt_86_56 0
dt_86_40 0
dt_17_93 0
dt_17_80 0
dt_17_68 5.3997082774528913e+00
dt_17_67 0
dt_17_63 0
dt_17_92 0
dt_17_82 0
dt_17_66 0
dt_17_56 0
dt_17_40 0
dt_130_93 0
dt_130_80 0
dt_130_68 0
dt_130_67 0
dt_130_63 4.5309784202714907e+00
dt_130_92 0
dt_130_82 0
dt_130_66 0
dt_130_56 0
dt_130_40 0
dt_208_93 0
dt_208_80 0
dt_208_68 0
dt_208_67 0
dt_208_63 0
dt_208_92 0
dt_208_82 0
dt_208_66 0
dt_208_56 0
dt_208_40 4.6603907217033669e+00
dt_214_93 0
dt_214_80 0
dt_214_68 0
dt_214_67 0
dt_214_63 0
dt_214_92 0
dt_214_82 0
dt_214_66 0
dt_214_56 3.1588466986439743e+00
dt_214_40 0
dt_146_93 0
dt_146_80 0
dt_146_68 0
dt_146_67 0
dt_146_63 0
dt_146_92 0
dt_146_82 0
dt_146_66 0
dt_146_56 0
dt_146_40 0
ut_1_44 3.6042965466025754e+00
ut_1_198 2.7323907217032195e+00
ut_1_202 1.2340752768900816e+00
ut_1_47 1.2340752768180010e+00
ut_1_197 4.7396188778453
ut_1_199 3.3517082775013951e+00
ut_1_29 7.5866115119988442e-01
ut_1_97 3.6042965466544441e+00
ut_1_15 4.7396188779213686e+00
ut_1_43 6.3825829486852237e-01
ut_1_123 1.2308467002852905e+00
ut_1_42 0
ut_1_205 7.5866115112540478e-01
ut_1_122 6.6464259123705025e+00
ut_1_133 0
ut_1_220 6.6464259126245482e+00
ut_1_101 9.7014060301228744e-01
ut_1_86 2.6029784234400744e+00
ut_1_17 3.3517082774528011e+00
ut_1_130 2.6029784235451388e+00
ut_1_208 2.7323907217032430e+00
ut_1_214 1.2308467003241041e+00
ut_1_146 0
fFP_1_44 3
fFP_1_198 3
fFP_1_202 3
fFP_1_47 3
fFP_1_197 3
fFP_1_199 3
fFP_1_29 3
fFP_1_97 3
fFP_1_15 3
fFP_1_43 3
fFP_1_123 3
fFP_1_42 0
fFP_1_205 3
fFP_1_122 3
fFP_1_133 0
fFP_1_220 3
fFP_1_101 2
fFP_1_86 3
fFP_1_17 3
fFP_1_130 3
fFP_1_208 3
fFP_1_214 3
fFP_1_146 0
dt_93 7.0036188778453310e+00
dt_80 6.0202965466025944e+00
dt_68 5.3997082774528167e+00
dt_67 3.58607527681788
dt_63 4.5309784233988069e+00
dt_92 3.0741406030120970e+00
dt_82 8.4464259123705130e+00
dt_66 2.7906611511252990e+00
dt_56 3.1588467002851530e+00
dt_40 4.6603907217032043e+00
dtt_93 21.0108566335377
dtt_80 1.8060889639810160e+01
dtt_68 1.6199124832360962e+01
dtt_67 1.0758225830462962e+01
dtt_63 1.3592935270200696e+01
dtt_92 9.2224218090498251e+00
dtt_82 2.5339277737112557e+01
dtt_66 8.3719834533878927e+00
dtt_56 9.4765401008644954e+00
dtt_40 1.3981172165113486e+01
dep_cost 9.3309469707973461e+04
log_cost 1.6118663622069715e+04
ort_y_1_44_93 0
ort_y_1_44_80 80
ort_y_1_44_68 0
ort_y_1_44_67 0
ort_y_1_44_63 0
ort_y_1_44_92 0
ort_y_1_44_82 0
ort_y_1_44_66 0
ort_y_1_44_56 0
ort_y_1_44_40 0
ort_y_1_198_93 0
ort_y_1_198_80 0
ort_y_1_198_68 0
ort_y_1_198_67 0
ort_y_1_198_63 0
ort_y_1_198_92 0
ort_y_1_198_82 0
ort_y_1_198_66 0
ort_y_1_198_56 0
ort_y_1_198_40 7.9999999999997016e+01
ort_y_1_202_93 0
ort_y_1_202_80 0
ort_y_1_202_68 0
ort_y_1_202_67 8.0000000000821629e+01
ort_y_1_202_63 0
ort_y_1_202_92 0
ort_y_1_202_82 0
ort_y_1_202_66 0
ort_y_1_202_56 0
ort_y_1_202_40 0
ort_y_1_47_93 0
ort_y_1_47_80 0
ort_y_1_47_68 0
ort_y_1_47_67 7.9999999999947988e+01
ort_y_1_47_63 0
ort_y_1_47_92 0
ort_y_1_47_82 0
ort_y_1_47_66 0
ort_y_1_47_56 0
ort_y_1_47_40 0
ort_y_1_197_93 8.0000000000000810e+01
ort_y_1_197_80 0
ort_y_1_197_68 0
ort_y_1_197_67 0
ort_y_1_197_63 0
ort_y_1_197_92 0
ort_y_1_197_82 0
ort_y_1_197_66 0
ort_y_1_197_56 0
ort_y_1_197_40 0
ort_y_1_199_93 0
ort_y_1_199_80 0
ort_y_1_199_68 8.0000000000323240e+01
ort_y_1_199_67 0
ort_y_1_199_63 0
ort_y_1_199_92 0
ort_y_1_199_82 0
ort_y_1_199_66 0
ort_y_1_199_56 0
ort_y_1_199_40 0
ort_y_1_29_93 0
ort_y_1_29_80 0
ort_y_1_29_68 0
ort_y_1_29_67 0
ort_y_1_29_63 0
ort_y_1_29_92 0
ort_y_1_29_82 0
ort_y_1_29_66 8.0000000001174087e+01
ort_y_1_29_56 0
ort_y_1_29_40 0
ort_y_1_97_93 0
ort_y_1_97_80 8.0000000000336385e+01
ort_y_1_97_68 0
ort_y_1_97_67 0
ort_y_1_97_63 0
ort_y_1_97_92 0
ort_y_1_97_82 0
ort_y_1_97_66 0
ort_y_1_97_56 0
ort_y_1_97_40 0
ort_y_1_15_93 8.0000000000393314e+01
ort_y_1_15_80 0
ort_y_1_15_68 0
ort_y_1_15_67 0
ort_y_1_15_63 0
ort_y_1_15_92 0
ort_y_1_15_82 0
ort_y_1_15_66 0
ort_y_1_15_56 0
ort_y_1_15_40 0
ort_y_1_43_93 0
ort_y_1_43_80 0
ort_y_1_43_68 0
ort_y_1_43_67 0
ort_y_1_43_63 0
ort_y_1_43_92 8.0000000002677254e+01
ort_y_1_43_82 0
ort_y_1_43_66 0
ort_y_1_43_56 0
ort_y_1_43_40 0
ort_y_1_123_93 0
ort_y_1_123_80 0
ort_y_1_123_68 0
ort_y_1_123_67 0
ort_y_1_123_63 0
ort_y_1_123_92 0
ort_y_1_123_82 0
ort_y_1_123_66 0
ort_y_1_123_56 7.9999999999505150e+01
ort_y_1_123_40 0
ort_y_1_42_93 0
ort_y_1_42_80 0
ort_y_1_42_68 0
ort_y_1_42_67 0
ort_y_1_42_63 0
ort_y_1_42_92 0
ort_y_1_42_82 0
ort_y_1_42_66 0
ort_y_1_42_56 0
ort_y_1_42_40 0
ort_y_1_205_93 0
ort_y_1_205_80 0
ort_y_1_205_68 0
ort_y_1_205_67 0
ort_y_1_205_63 0
ort_y_1_205_92 0
ort_y_1_205_82 0
ort_y_1_205_66 7.9999999999861672e+01
ort_y_1_205_56 0
ort_y_1_205_40 0
ort_y_1_122_93 0
ort_y_1_122_80 0
ort_y_1_122_68 0
ort_y_1_122_67 0
ort_y_1_122_63 0
ort_y_1_122_92 0
ort_y_1_122_82 7.9999999999997556e+01
ort_y_1_122_66 0
ort_y_1_122_56 0
ort_y_1_122_40 0
ort_y_1_133_93 0
ort_y_1_133_80 0
ort_y_1_133_68 0
ort_y_1_133_67 0
ort_y_1_133_63 0
ort_y_1_133_92 0
ort_y_1_133_82 0
ort_y_1_133_66 0
ort_y_1_133_56 0
ort_y_1_133_40 0
ort_y_1_220_93 0
ort_y_1_220_80 0
ort_y_1_220_68 0
ort_y_1_220_67 0
ort_y_1_220_63 0
ort_y_1_220_92 0
ort_y_1_220_82 8.0000000000452246e+01
ort_y_1_220_66 0
ort_y_1_220_56 0
ort_y_1_220_40 0
ort_y_1_101_93 0
ort_y_1_101_80 0
ort_y_1_101_68 0
ort_y_1_101_67 0
ort_y_1_101_63 0
ort_y_1_101_92 1.1999999999990150e+02
ort_y_1_101_82 0
ort_y_1_101_66 0
ort_y_1_101_56 0
ort_y_1_101_40 0
ort_y_1_86_93 0
ort_y_1_86_80 0
ort_y_1_86_68 0
ort_y_1_86_67 0
ort_y_1_86_63 8.0000000000316746e+01
ort_y_1_86_92 0
ort_y_1_86_82 0
ort_y_1_86_66 0
ort_y_1_86_56 0
ort_y_1_86_40 0
ort_y_1_17_93 0
ort_y_1_17_80 0
ort_y_1_17_68 7.9999999999908738e+01
ort_y_1_17_67 0
ort_y_1_17_63 0
ort_y_1_17_92 0
ort_y_1_17_82 0
ort_y_1_17_66 0
ort_y_1_17_56 0
ort_y_1_17_40 0
ort_y_1_130_93 0
ort_y_1_130_80 0
ort_y_1_130_68 0
ort_y_1_130_67 0
ort_y_1_130_63 8.0000000000893337e+01
ort_y_1_130_92 0
ort_y_1_130_82 0
ort_y_1_130_66 0
ort_y_1_130_56 0
ort_y_1_130_40 0
ort_y_1_208_93 0
ort_y_1_208_80 0
ort_y_1_208_68 0
ort_y_1_208_67 0
ort_y_1_208_63 0
ort_y_1_208_92 0
ort_y_1_208_82 0
ort_y_1_208_66 0
ort_y_1_208_56 0
ort_y_1_208_40 7.9999999999990990e+01
ort_y_1_214_93 0
ort_y_1_214_80 0
ort_y_1_214_68 0
ort_y_1_214_67 0
ort_y_1_214_63 0
ort_y_1_214_92 0
ort_y_1_214_82 0
ort_y_1_214_66 0
ort_y_1_214_56 8.0000000000491383e+01
ort_y_1_214_40 0
ort_y_1_146_93 0
ort_y_1_146_80 0
ort_y_1_146_68 0
ort_y_1_146_67 0
ort_y_1_146_63 0
ort_y_1_146_92 0
ort_y_1_146_82 0
ort_y_1_146_66 0
ort_y_1_146_56 0
ort_y_1_146_40 0
ut_y_1_44_93 0
ut_y_1_44_80 3.6042965466025754e+00
ut_y_1_44_68 0
ut_y_1_44_67 0
ut_y_1_44_63 0
ut_y_1_44_92 0
ut_y_1_44_82 0
ut_y_1_44_66 0
ut_y_1_44_56 0
ut_y_1_44_40 0
ut_y_1_198_93 0
ut_y_1_198_80 0
ut_y_1_198_68 0
ut_y_1_198_67 0
ut_y_1_198_63 0
ut_y_1_198_92 0
ut_y_1_198_82 0
ut_y_1_198_66 0
ut_y_1_198_56 0
ut_y_1_198_40 2.7323907217032195e+00
ut_y_1_202_93 0
ut_y_1_202_80 0
ut_y_1_202_68 0
ut_y_1_202_67 1.2340752768900816e+00
ut_y_1_202_63 0
ut_y_1_202_92 0
ut_y_1_202_82 0
ut_y_1_202_66 0
ut_y_1_202_56 0
ut_y_1_202_40 0
ut_y_1_47_93 0
ut_y_1_47_80 0
ut_y_1_47_68 0
ut_y_1_47_67 1.2340752768180010e+00
ut_y_1_47_63 0
ut_y_1_47_92 0
ut_y_1_47_82 0
ut_y_1_47_66 0
ut_y_1_47_56 0
ut_y_1_47_40 0
ut_y_1_197_93 4.7396188778453
ut_y_1_197_80 0
ut_y_1_197_68 0
ut_y_1_197_67 0
ut_y_1_197_63 0
ut_y_1_197_92 0
ut_y_1_197_82 0
ut_y_1_197_66 0
ut_y_1_197_56 0
ut_y_1_197_40 0
ut_y_1_199_93 0
ut_y_1_199_80 0
ut_y_1_199_68 3.3517082775013951e+00
ut_y_1_199_67 0
ut_y_1_199_63 0
ut_y_1_199_92 0
ut_y_1_199_82 0
ut_y_1_199_66 0
ut_y_1_199_56 0
ut_y_1_199_40 0
ut_y_1_29_93 0
ut_y_1_29_80 0
ut_y_1_29_68 0
ut_y_1_29_67 0
ut_y_1_29_63 0
ut_y_1_29_92 0
ut_y_1_29_82 0
ut_y_1_29_66 7.5866115119988442e-01
ut_y_1_29_56 0
ut_y_1_29_40 0
ut_y_1_97_93 0
ut_y_1_97_80 3.6042965466544441e+00
ut_y_1_97_68 0
ut_y_1_97_67 0
ut_y_1_97_63 0
ut_y_1_97_92 0
ut_y_1_97_82 0
ut_y_1_97_66 0
ut_y_1_97_56 0
ut_y_1_97_40 0
ut_y_1_15_93 4.7396188779213686e+00
ut_y_1_15_80 0
ut_y_1_15_68 0
ut_y_1_15_67 0
ut_y_1_15_63 0
ut_y_1_15_92 0
ut_y_1_15_82 0
ut_y_1_15_66 0
ut_y_1_15_56 0
ut_y_1_15_40 0
ut_y_1_43_93 0
ut_y_1_43_80 0
ut_y_1_43_68 0
ut_y_1_43_67 0
ut_y_1_43_63 0
ut_y_1_43_92 6.3825829486852237e-01
ut_y_1_43_82 0
ut_y_1_43_66 0
ut_y_1_43_56 0
ut_y_1_43_40 0
ut_y_1_123_93 0
ut_y_1_123_80 0
ut_y_1_123_68 0
ut_y_1_123_67 0
ut_y_1_123_63 0
ut_y_1_123_92 0
ut_y_1_123_82 0
ut_y_1_123_66 0
ut_y_1_123_56 1.2308467002852905e+00
ut_y_1_123_40 0
ut_y_1_42_93 0
ut_y_1_42_80 0
ut_y_1_42_68 0
ut_y_1_42_67 0
ut_y_1_42_63 0
ut_y_1_42_92 0
ut_y_1_42_82 0
ut_y_1_42_66 0
ut_y_1_42_56 0
ut_y_1_42_40 0
ut_y_1_205_93 0
ut_y_1_205_80 0
ut_y_1_205_68 0
ut_y_1_205_67 0
ut_y_1_205_63 0
ut_y_1_205_92 0
ut_y_1_205_82 0
ut_y_1_205_66 7.5866115112540478e-01
ut_y_1_205_56 0
ut_y_1_205_40 0
ut_y_1_122_93 0
ut_y_1_122_80 0
ut_y_1_122_68 0
ut_y_1_122_67 0
ut_y_1_122_63 0
ut_y_1_122_92 0
ut_y_1_122_82 6.6464259123705025e+00
ut_y_1_122_66 0
ut_y_1_122_56 0
ut_y_1_122_40 0
ut_y_1_133_93 0
ut_y_1_133_80 0
ut_y_1_133_68 0
ut_y_1_133_67 0
ut_y_1_133_63 0
ut_y_1_133_92 0
ut_y_1_133_82 0
ut_y_1_133_66 0
ut_y_1_133_56 0
ut_y_1_133_40 0
ut_y_1_220_93 0
ut_y_1_220_80 0
ut_y_1_220_68 0
ut_y_1_220_67 0
ut_y_1_220_63 0
ut_y_1_220_92 0
ut_y_1_220_82 6.6464259126245482e+00
ut_y_1_220_66 0
ut_y_1_220_56 0
ut_y_1_220_40 0
ut_y_1_101_93 0
ut_y_1_101_80 0
ut_y_1_101_68 0
ut_y_1_101_67 0
ut_y_1_101_63 0
ut_y_1_101_92 9.7014060301228744e-01
ut_y_1_101_82 0
ut_y_1_101_66 0
ut_y_1_101_56 0
ut_y_1_101_40 0
ut_y_1_86_93 0
ut_y_1_86_80 0
ut_y_1_86_68 0
ut_y_1_86_67 0
ut_y_1_86_63 2.6029784234400744e+00
ut_y_1_86_92 0
ut_y_1_86_82 0
ut_y_1_86_66 0
ut_y_1_86_56 0
ut_y_1_86_40 0
ut_y_1_17_93 0
ut_y_1_17_80 0
ut_y_1_17_68 3.3517082774528011e+00
ut_y_1_17_67 0
ut_y_1_17_63 0
ut_y_1_17_92 0
ut_y_1_17_82 0
ut_y_1_17_66 0
ut_y_1_17_56 0
ut_y_1_17_40 0
ut_y_1_130_93 0
ut_y_1_130_80 0
ut_y_1_130_68 0
ut_y_1_130_67 0
ut_y_1_130_63 2.6029784235451388e+00
ut_y_1_130_92 0
ut_y_1_130_82 0
ut_y_1_130_66 0
ut_y_1_130_56 0
ut_y_1_130_40 0
ut_y_1_208_93 0
ut_y_1_208_80 0
ut_y_1_208_68 0
ut_y_1_208_67 0
ut_y_1_208_63 0
ut_y_1_208_92 0
ut_y_1_208_82 0
ut_y_1_208_66 0
ut_y_1_208_56 0
ut_y_1_208_40 2.7323907217032430e+00
ut_y_1_214_93 0
ut_y_1_214_80 0
ut_y_1_214_68 0
ut_y_1_214_67 0
ut_y_1_214_63 0
ut_y_1_214_92 0
ut_y_1_214_82 0
ut_y_1_214_66 0
ut_y_1_214_56 1.2308467003241041e+00
ut_y_1_214_40 0
ut_y_1_146_93 0
ut_y_1_146_80 0
ut_y_1_146_68 0
ut_y_1_146_67 0
ut_y_1_146_63 0
ut_y_1_146_92 0
ut_y_1_146_82 0
ut_y_1_146_66 0
ut_y_1_146_56 0
ut_y_1_146_40 0
ort_fFP_1_44 0
ort_fFP_1_198 0
ort_fFP_1_202 0
ort_fFP_1_47 0
ort_fFP_1_197 0
ort_fFP_1_199 0
ort_fFP_1_29 0
ort_fFP_1_97 0
ort_fFP_1_15 0
ort_fFP_1_43 0
ort_fFP_1_123 0
ort_fFP_1_42 0
ort_fFP_1_205 0
ort_fFP_1_122 0
ort_fFP_1_133 0
ort_fFP_1_220 0
ort_fFP_1_101 0
ort_fFP_1_86 0
ort_fFP_1_17 0
ort_fFP_1_130 0
ort_fFP_1_208 0
ort_fFP_1_214 0
ort_fFP_1_146 0
ort_fFP1_1_44 0
ort_fFP1_1_198 0
ort_fFP1_1_202 0
ort_fFP1_1_47 0
ort_fFP1_1_197 0
ort_fFP1_1_199 0
ort_fFP1_1_29 0
ort_fFP1_1_97 0
ort_fFP1_1_15 0
ort_fFP1_1_43 0
ort_fFP1_1_123 0
ort_fFP1_1_42 0
ort_fFP1_1_205 0
ort_fFP1_1_122 0
ort_fFP1_1_133 0
ort_fFP1_1_220 0
ort_fFP1_1_101 0
ort_fFP1_1_86 0
ort_fFP1_1_17 0
ort_fFP1_1_130 0
ort_fFP1_1_208 0
ort_fFP1_1_214 0
ort_fFP1_1_146 0
ort_fFP2_1_44 0
ort_fFP2_1_198 0
ort_fFP2_1_202 0
ort_fFP2_1_47 0
ort_fFP2_1_197 0
ort_fFP2_1_199 0
ort_fFP2_1_29 0
ort_fFP2_1_97 0
ort_fFP2_1_15 0
ort_fFP2_1_43 0
ort_fFP2_1_123 0
ort_fFP2_1_42 0
ort_fFP2_1_205 0
ort_fFP2_1_122 0
ort_fFP2_1_133 0
ort_fFP2_1_220 0
ort_fFP2_1_101 0
ort_fFP2_1_86 0
ort_fFP2_1_17 0
ort_fFP2_1_130 0
ort_fFP2_1_208 0
ort_fFP2_1_214 0
ort_fFP2_1_146 0
dt_fFP_1_44_93 0
dt_fFP_1_44_80 0
dt_fFP_1_44_68 0
dt_fFP_1_44_67 0
dt_fFP_1_44_63 0
dt_fFP_1_44_92 0
dt_fFP_1_44_82 0
dt_fFP_1_44_66 0
dt_fFP_1_44_56 0
dt_fFP_1_44_40 0
dt_fFP_1_198_93 0
dt_fFP_1_198_80 0
dt_fFP_1_198_68 0
dt_fFP_1_198_67 0
dt_fFP_1_198_63 0
dt_fFP_1_198_92 0
dt_fFP_1_198_82 0
dt_fFP_1_198_66 0
dt_fFP_1_198_56 0
dt_fFP_1_198_40 0
dt_fFP_1_202_93 0
dt_fFP_1_202_80 0
dt_fFP_1_202_68 0
dt_fFP_1_202_67 0
dt_fFP_1_202_63 0
dt_fFP_1_202_92 0
dt_fFP_1_202_82 0
dt_fFP_1_202_66 0
dt_fFP_1_202_56 0
dt_fFP_1_202_40 0
dt_fFP_1_47_93 0
dt_fFP_1_47_80 0
dt_fFP_1_47_68 0
dt_fFP_1_47_67 0
dt_fFP_1_47_63 0
dt_fFP_1_47_92 0
dt_fFP_1_47_82 0
dt_fFP_1_47_66 0
dt_fFP_1_47_56 0
dt_fFP_1_47_40 0
dt_fFP_1_197_93 0
dt_fFP_1_197_80 0
dt_fFP_1_197_68 0
dt_fFP_1_197_67 0
dt_fFP_1_197_63 0
dt_fFP_1_197_92 0
dt_fFP_1_197_82 0
dt_fFP_1_197_66 0
dt_fFP_1_197_56 0
dt_fFP_1_197_40 0
dt_fFP_1_199_93 0
dt_fFP_1_199_80 0
dt_fFP_1_199_68 0
dt_fFP_1_199_67 0
dt_fFP_1_199_63 0
dt_fFP_1_199_92 0
dt_fFP_1_199_82 0
dt_fFP_1_199_66 0
dt_fFP_1_199_56 0
dt_fFP_1_199_40 0
dt_fFP_1_29_93 0
dt_fFP_1_29_80 0
dt_fFP_1_29_68 0
dt_fFP_1_29_67 0
dt_fFP_1_29_63 0
dt_fFP_1_29_92 0
dt_fFP_1_29_82 0
dt_fFP_1_29_66 0
dt_fFP_1_29_56 0
dt_fFP_1_29_40 0
dt_fFP_1_97_93 0
dt_fFP_1_97_80 0
dt_fFP_1_97_68 0
dt_fFP_1_97_67 0
dt_fFP_1_97_63 0
dt_fFP_1_97_92 0
dt_fFP_1_97_82 0
dt_fFP_1_97_66 0
dt_fFP_1_97_56 0
dt_fFP_1_97_40 0
dt_fFP_1_15_93 0
dt_fFP_1_15_80 0
dt_fFP_1_15_68 0
dt_fFP_1_15_67 0
dt_fFP_1_15_63 0
dt_fFP_1_15_92 0
dt_fFP_1_15_82 0
dt_fFP_1_15_66 0
dt_fFP_1_15_56 0
dt_fFP_1_15_40 0
dt_fFP_1_43_93 0
dt_fFP_1_43_80 0
dt_fFP_1_43_68 0
dt_fFP_1_43_67 0
dt_fFP_1_43_63 0
dt_fFP_1_43_92 0
dt_fFP_1_43_82 0
dt_fFP_1_43_66 0
dt_fFP_1_43_56 0
dt_fFP_1_43_40 0
dt_fFP_1_123_93 0
dt_fFP_1_123_80 0
dt_fFP_1_123_68 0
dt_fFP_1_123_67 0
dt_fFP_1_123_63 0
dt_fFP_1_123_92 0
dt_fFP_1_123_82 0
dt_fFP_1_123_66 0
dt_fFP_1_123_56 0
dt_fFP_1_123_40 0
dt_fFP_1_42_93 0
dt_fFP_1_42_80 0
dt_fFP_1_42_68 0
dt_fFP_1_42_67 0
dt_fFP_1_42_63 0
dt_fFP_1_42_92 0
dt_fFP_1_42_82 0
dt_fFP_1_42_66 0
dt_fFP_1_42_56 0
dt_fFP_1_42_40 0
dt_fFP_1_205_93 0
dt_fFP_1_205_80 0
dt_fFP_1_205_68 0
dt_fFP_1_205_67 0
dt_fFP_1_205_63 0
dt_fFP_1_205_92 0
dt_fFP_1_205_82 0
dt_fFP_1_205_66 0
dt_fFP_1_205_56 0
dt_fFP_1_205_40 0
dt_fFP_1_122_93 0
dt_fFP_1_122_80 0
dt_fFP_1_122_68 0
dt_fFP_1_122_67 0
dt_fFP_1_122_63 0
dt_fFP_1_122_92 0
dt_fFP_1_122_82 0
dt_fFP_1_122_66 0
dt_fFP_1_122_56 0
dt_fFP_1_122_40 0
dt_fFP_1_133_93 0
dt_fFP_1_133_80 0
dt_fFP_1_133_68 0
dt_fFP_1_133_67 0
dt_fFP_1_133_63 0
dt_fFP_1_133_92 0
dt_fFP_1_133_82 0
dt_fFP_1_133_66 0
dt_fFP_1_133_56 0
dt_fFP_1_133_40 0
dt_fFP_1_220_93 0
dt_fFP_1_220_80 0
dt_fFP_1_220_68 0
dt_fFP_1_220_67 0
dt_fFP_1_220_63 0
dt_fFP_1_220_92 0
dt_fFP_1_220_82 0
dt_fFP_1_220_66 0
dt_fFP_1_220_56 0
dt_fFP_1_220_40 0
dt_fFP_1_101_93 0
dt_fFP_1_101_80 0
dt_fFP_1_101_68 0
dt_fFP_1_101_67 0
dt_fFP_1_101_63 0
dt_fFP_1_101_92 0
dt_fFP_1_101_82 0
dt_fFP_1_101_66 0
dt_fFP_1_101_56 0
dt_fFP_1_101_40 0
dt_fFP_1_86_93 0
dt_fFP_1_86_80 0
dt_fFP_1_86_68 0
dt_fFP_1_86_67 0
dt_fFP_1_86_63 0
dt_fFP_1_86_92 0
dt_fFP_1_86_82 0
dt_fFP_1_86_66 0
dt_fFP_1_86_56 0
dt_fFP_1_86_40 0
dt_fFP_1_17_93 0
dt_fFP_1_17_80 0
dt_fFP_1_17_68 0
dt_fFP_1_17_67 0
dt_fFP_1_17_63 0
dt_fFP_1_17_92 0
dt_fFP_1_17_82 0
dt_fFP_1_17_66 0
dt_fFP_1_17_56 0
dt_fFP_1_17_40 0
dt_fFP_1_130_93 0
dt_fFP_1_130_80 0
dt_fFP_1_130_68 0
dt_fFP_1_130_67 0
dt_fFP_1_130_63 0
dt_fFP_1_130_92 0
dt_fFP_1_130_82 0
dt_fFP_1_130_66 0
dt_fFP_1_130_56 0
dt_fFP_1_130_40 0
dt_fFP_1_208_93 0
dt_fFP_1_208_80 0
dt_fFP_1_208_68 0
dt_fFP_1_208_67 0
dt_fFP_1_208_63 0
dt_fFP_1_208_92 0
dt_fFP_1_208_82 0
dt_fFP_1_208_66 0
dt_fFP_1_208_56 0
dt_fFP_1_208_40 0
dt_fFP_1_214_93 0
dt_fFP_1_214_80 0
dt_fFP_1_214_68 0
dt_fFP_1_214_67 0
dt_fFP_1_214_63 0
dt_fFP_1_214_92 0
dt_fFP_1_214_82 0
dt_fFP_1_214_66 0
dt_fFP_1_214_56 0
dt_fFP_1_214_40 0
dt_fFP_1_146_93 0
dt_fFP_1_146_80 0
dt_fFP_1_146_68 0
dt_fFP_1_146_67 0
dt_fFP_1_146_63 0
dt_fFP_1_146_92 0
dt_fFP_1_146_82 0
dt_fFP_1_146_66 0
dt_fFP_1_146_56 0
dt_fFP_1_146_40 0
dt_fFP1_1_44_93 0
dt_fFP1_1_44_80 0
dt_fFP1_1_44_68 0
dt_fFP1_1_44_67 0
dt_fFP1_1_44_63 0
dt_fFP1_1_44_92 0
dt_fFP1_1_44_82 0
dt_fFP1_1_44_66 0
dt_fFP1_1_44_56 0
dt_fFP1_1_44_40 0
dt_fFP1_1_198_93 0
dt_fFP1_1_198_80 0
dt_fFP1_1_198_68 0
dt_fFP1_1_198_67 0
dt_fFP1_1_198_63 0
dt_fFP1_1_198_92 0
dt_fFP1_1_198_82 0
dt_fFP1_1_198_66 0
dt_fFP1_1_198_56 0
dt_fFP1_1_198_40 0
dt_fFP1_1_202_93 0
dt_fFP1_1_202_80 0
dt_fFP1_1_202_68 0
dt_fFP1_1_202_67 0
dt_fFP1_1_202_63 0
dt_fFP1_1_202_92 0
dt_fFP1_1_202_82 0
dt_fFP1_1_202_66 0
dt_fFP1_1_202_56 0
dt_fFP1_1_202_40 0
dt_fFP1_1_47_93 0
dt_fFP1_1_47_80 0
dt_fFP1_1_47_68 0
dt_fFP1_1_47_67 0
dt_fFP1_1_47_63 0
dt_fFP1_1_47_92 0
dt_fFP1_1_47_82 0
dt_fFP1_1_47_66 0
dt_fFP1_1_47_56 0
dt_fFP1_1_47_40 0
dt_fFP1_1_197_93 0
dt_fFP1_1_197_80 0
dt_fFP1_1_197_68 0
dt_fFP1_1_197_67 0
dt_fFP1_1_197_63 0
dt_fFP1_1_197_92 0
dt_fFP1_1_197_82 0
dt_fFP1_1_197_66 0
dt_fFP1_1_197_56 0
dt_fFP1_1_197_40 0
dt_fFP1_1_199_93 0
dt_fFP1_1_199_80 0
dt_fFP1_1_199_68 0
dt_fFP1_1_199_67 0
dt_fFP1_1_199_63 0
dt_fFP1_1_199_92 0
dt_fFP1_1_199_82 0
dt_fFP1_1_199_66 0
dt_fFP1_1_199_56 0
dt_fFP1_1_199_40 0
dt_fFP1_1_29_93 0
dt_fFP1_1_29_80 0
dt_fFP1_1_29_68 0
dt_fFP1_1_29_67 0
dt_fFP1_1_29_63 0
dt_fFP1_1_29_92 0
dt_fFP1_1_29_82 0
dt_fFP1_1_29_66 0
dt_fFP1_1_29_56 0
dt_fFP1_1_29_40 0
dt_fFP1_1_97_93 0
dt_fFP1_1_97_80 0
dt_fFP1_1_97_68 0
dt_fFP1_1_97_67 0
dt_fFP1_1_97_63 0
dt_fFP1_1_97_92 0
dt_fFP1_1_97_82 0
dt_fFP1_1_97_66 0
dt_fFP1_1_97_56 0
dt_fFP1_1_97_40 0
dt_fFP1_1_15_93 0
dt_fFP1_1_15_80 0
dt_fFP1_1_15_68 0
dt_fFP1_1_15_67 0
dt_fFP1_1_15_63 0
dt_fFP1_1_15_92 0
dt_fFP1_1_15_82 0
dt_fFP1_1_15_66 0
dt_fFP1_1_15_56 0
dt_fFP1_1_15_40 0
dt_fFP1_1_43_93 0
dt_fFP1_1_43_80 0
dt_fFP1_1_43_68 0
dt_fFP1_1_43_67 0
dt_fFP1_1_43_63 0
dt_fFP1_1_43_92 0
dt_fFP1_1_43_82 0
dt_fFP1_1_43_66 0
dt_fFP1_1_43_56 0
dt_fFP1_1_43_40 0
dt_fFP1_1_123_93 0
dt_fFP1_1_123_80 0
dt_fFP1_1_123_68 0
dt_fFP1_1_123_67 0
dt_fFP1_1_123_63 0
dt_fFP1_1_123_92 0
dt_fFP1_1_123_82 0
dt_fFP1_1_123_66 0
dt_fFP1_1_123_56 0
dt_fFP1_1_123_40 0
dt_fFP1_1_42_93 0
dt_fFP1_1_42_80 0
dt_fFP1_1_42_68 0
dt_fFP1_1_42_67 0
dt_fFP1_1_42_63 0
dt_fFP1_1_42_92 0
dt_fFP1_1_42_82 0
dt_fFP1_1_42_66 0
dt_fFP1_1_42_56 0
dt_fFP1_1_42_40 0
dt_fFP1_1_205_93 0
dt_fFP1_1_205_80 0
dt_fFP1_1_205_68 0
dt_fFP1_1_205_67 0
dt_fFP1_1_205_63 0
dt_fFP1_1_205_92 0
dt_fFP1_1_205_82 0
dt_fFP1_1_205_66 0
dt_fFP1_1_205_56 0
dt_fFP1_1_205_40 0
dt_fFP1_1_122_93 0
dt_fFP1_1_122_80 0
dt_fFP1_1_122_68 0
dt_fFP1_1_122_67 0
dt_fFP1_1_122_63 0
dt_fFP1_1_122_92 0
dt_fFP1_1_122_82 0
dt_fFP1_1_122_66 0
dt_fFP1_1_122_56 0
dt_fFP1_1_122_40 0
dt_fFP1_1_133_93 0
dt_fFP1_1_133_80 0
dt_fFP1_1_133_68 0
dt_fFP1_1_133_67 0
dt_fFP1_1_133_63 0
dt_fFP1_1_133_92 0
dt_fFP1_1_133_82 0
dt_fFP1_1_133_66 0
dt_fFP1_1_133_56 0
dt_fFP1_1_133_40 0
dt_fFP1_1_220_93 0
dt_fFP1_1_220_80 0
dt_fFP1_1_220_68 0
dt_fFP1_1_220_67 0
dt_fFP1_1_220_63 0
dt_fFP1_1_220_92 0
dt_fFP1_1_220_82 0
dt_fFP1_1_220_66 0
dt_fFP1_1_220_56 0
dt_fFP1_1_220_40 0
dt_fFP1_1_101_93 0
dt_fFP1_1_101_80 0
dt_fFP1_1_101_68 0
dt_fFP1_1_101_67 0
dt_fFP1_1_101_63 0
dt_fFP1_1_101_92 0
dt_fFP1_1_101_82 0
dt_fFP1_1_101_66 0
dt_fFP1_1_101_56 0
dt_fFP1_1_101_40 0
dt_fFP1_1_86_93 0
dt_fFP1_1_86_80 0
dt_fFP1_1_86_68 0
dt_fFP1_1_86_67 0
dt_fFP1_1_86_63 0
dt_fFP1_1_86_92 0
dt_fFP1_1_86_82 0
dt_fFP1_1_86_66 0
dt_fFP1_1_86_56 0
dt_fFP1_1_86_40 0
dt_fFP1_1_17_93 0
dt_fFP1_1_17_80 0
dt_fFP1_1_17_68 0
dt_fFP1_1_17_67 0
dt_fFP1_1_17_63 0
dt_fFP1_1_17_92 0
dt_fFP1_1_17_82 0
dt_fFP1_1_17_66 0
dt_fFP1_1_17_56 0
dt_fFP1_1_17_40 0
dt_fFP1_1_130_93 0
dt_fFP1_1_130_80 0
dt_fFP1_1_130_68 0
dt_fFP1_1_130_67 0
dt_fFP1_1_130_63 0
dt_fFP1_1_130_92 0
dt_fFP1_1_130_82 0
dt_fFP1_1_130_66 0
dt_fFP1_1_130_56 0
dt_fFP1_1_130_40 0
dt_fFP1_1_208_93 0
dt_fFP1_1_208_80 0
dt_fFP1_1_208_68 0
dt_fFP1_1_208_67 0
dt_fFP1_1_208_63 0
dt_fFP1_1_208_92 0
dt_fFP1_1_208_82 0
dt_fFP1_1_208_66 0
dt_fFP1_1_208_56 0
dt_fFP1_1_208_40 0
dt_fFP1_1_214_93 0
dt_fFP1_1_214_80 0
dt_fFP1_1_214_68 0
dt_fFP1_1_214_67 0
dt_fFP1_1_214_63 0
dt_fFP1_1_214_92 0
dt_fFP1_1_214_82 0
dt_fFP1_1_214_66 0
dt_fFP1_1_214_56 0
dt_fFP1_1_214_40 0
dt_fFP1_1_146_93 0
dt_fFP1_1_146_80 0
dt_fFP1_1_146_68 0
dt_fFP1_1_146_67 0
dt_fFP1_1_146_63 0
dt_fFP1_1_146_92 0
dt_fFP1_1_146_82 0
dt_fFP1_1_146_66 0
dt_fFP1_1_146_56 0
dt_fFP1_1_146_40 0
dt_fFP2_1_44_93 0
dt_fFP2_1_44_80 0
dt_fFP2_1_44_68 0
dt_fFP2_1_44_67 0
dt_fFP2_1_44_63 0
dt_fFP2_1_44_92 0
dt_fFP2_1_44_82 0
dt_fFP2_1_44_66 0
dt_fFP2_1_44_56 0
dt_fFP2_1_44_40 0
dt_fFP2_1_198_93 0
dt_fFP2_1_198_80 0
dt_fFP2_1_198_68 0
dt_fFP2_1_198_67 0
dt_fFP2_1_198_63 0
dt_fFP2_1_198_92 0
dt_fFP2_1_198_82 0
dt_fFP2_1_198_66 0
dt_fFP2_1_198_56 0
dt_fFP2_1_198_40 0
dt_fFP2_1_202_93 0
dt_fFP2_1_202_80 0
dt_fFP2_1_202_68 0
dt_fFP2_1_202_67 0
dt_fFP2_1_202_63 0
dt_fFP2_1_202_92 0
dt_fFP2_1_202_82 0
dt_fFP2_1_202_66 0
dt_fFP2_1_202_56 0
dt_fFP2_1_202_40 0
dt_fFP2_1_47_93 0
dt_fFP2_1_47_80 0
dt_fFP2_1_47_68 0
dt_fFP2_1_47_67 0
dt_fFP2_1_47_63 0
dt_fFP2_1_47_92 0
dt_fFP2_1_47_82 0
dt_fFP2_1_47_66 0
dt_fFP2_1_47_56 0
dt_fFP2_1_47_40 0
dt_fFP2_1_197_93 0
dt_fFP2_1_197_80 0
dt_fFP2_1_197_68 0
dt_fFP2_1_197_67 0
dt_fFP2_1_197_63 0
dt_fFP2_1_197_92 0
dt_fFP2_1_197_82 0
dt_fFP2_1_197_66 0
dt_fFP2_1_197_56 0
dt_fFP2_1_197_40 0
dt_fFP2_1_199_93 0
dt_fFP2_1_199_80 0
dt_fFP2_1_199_68 0
dt_fFP2_1_199_67 0
dt_fFP2_1_199_63 0
dt_fFP2_1_199_92 0
dt_fFP2_1_199_82 0
dt_fFP2_1_199_66 0
dt_fFP2_1_199_56 0
dt_fFP2_1_199_40 0
dt_fFP2_1_29_93 0
dt_fFP2_1_29_80 0
dt_fFP2_1_29_68 0
dt_fFP2_1_29_67 0
dt_fFP2_1_29_63 0
dt_fFP2_1_29_92 0
dt_fFP2_1_29_82 0
dt_fFP2_1_29_66 0
dt_fFP2_1_29_56 0
dt_fFP2_1_29_40 0
dt_fFP2_1_97_93 0
dt_fFP2_1_97_80 0
dt_fFP2_1_97_68 0
dt_fFP2_1_97_67 0
dt_fFP2_1_97_63 0
dt_fFP2_1_97_92 0
dt_fFP2_1_97_82 0
dt_fFP2_1_97_66 0
dt_fFP2_1_97_56 0
dt_fFP2_1_97_40 0
dt_fFP2_1_15_93 0
dt_fFP2_1_15_80 0
dt_fFP2_1_15_68 0
dt_fFP2_1_15_67 0
dt_fFP2_1_15_63 0
dt_fFP2_1_15_92 0
dt_fFP2_1_15_82 0
dt_fFP2_1_15_66 0
dt_fFP2_1_15_56 0
dt_fFP2_1_15_40 0
dt_fFP2_1_43_93 0
dt_fFP2_1_43_80 0
dt_fFP2_1_43_68 0
dt_fFP2_1_43_67 0
dt_fFP2_1_43_63 0
dt_fFP2_1_43_92 0
dt_fFP2_1_43_82 0
dt_fFP2_1_43_66 0
dt_fFP2_1_43_56 0
dt_fFP2_1_43_40 0
dt_fFP2_1_123_93 0
dt_fFP2_1_123_80 0
dt_fFP2_1_123_68 0
dt_fFP2_1_123_67 0
dt_fFP2_1_123_63 0
dt_fFP2_1_123_92 0
dt_fFP2_1_123_82 0
dt_fFP2_1_123_66 0
dt_fFP2_1_123_56 0
dt_fFP2_1_123_40 0
dt_fFP2_1_42_93 0
dt_fFP2_1_42_80 0
dt_fFP2_1_42_68 0
dt_fFP2_1_42_67 0
dt_fFP2_1_42_63 0
dt_fFP2_1_42_92 0
dt_fFP2_1_42_82 0
dt_fFP2_1_42_66 0
dt_fFP2_1_42_56 0
dt_fFP2_1_42_40 0
dt_fFP2_1_205_93 0
dt_fFP2_1_205_80 0
dt_fFP2_1_205_68 0
dt_fFP2_1_205_67 0
dt_fFP2_1_205_63 0
dt_fFP2_1_205_92 0
dt_fFP2_1_205_82 0
dt_fFP2_1_205_66 0
dt_fFP2_1_205_56 0
dt_fFP2_1_205_40 0
dt_fFP2_1_122_93 0
dt_fFP2_1_122_80 0
dt_fFP2_1_122_68 0
dt_fFP2_1_122_67 0
dt_fFP2_1_122_63 0
dt_fFP2_1_122_92 0
dt_fFP2_1_122_82 0
dt_fFP2_1_122_66 0
dt_fFP2_1_122_56 0
dt_fFP2_1_122_40 0
dt_fFP2_1_133_93 0
dt_fFP2_1_133_80 0
dt_fFP2_1_133_68 0
dt_fFP2_1_133_67 0
dt_fFP2_1_133_63 0
dt_fFP2_1_133_92 0
dt_fFP2_1_133_82 0
dt_fFP2_1_133_66 0
dt_fFP2_1_133_56 0
dt_fFP2_1_133_40 0
dt_fFP2_1_220_93 0
dt_fFP2_1_220_80 0
dt_fFP2_1_220_68 0
dt_fFP2_1_220_67 0
dt_fFP2_1_220_63 0
dt_fFP2_1_220_92 0
dt_fFP2_1_220_82 0
dt_fFP2_1_220_66 0
dt_fFP2_1_220_56 0
dt_fFP2_1_220_40 0
dt_fFP2_1_101_93 0
dt_fFP2_1_101_80 0
dt_fFP2_1_101_68 0
dt_fFP2_1_101_67 0
dt_fFP2_1_101_63 0
dt_fFP2_1_101_92 0
dt_fFP2_1_101_82 0
dt_fFP2_1_101_66 0
dt_fFP2_1_101_56 0
dt_fFP2_1_101_40 0
dt_fFP2_1_86_93 0
dt_fFP2_1_86_80 0
dt_fFP2_1_86_68 0
dt_fFP2_1_86_67 0
dt_fFP2_1_86_63 0
dt_fFP2_1_86_92 0
dt_fFP2_1_86_82 0
dt_fFP2_1_86_66 0
dt_fFP2_1_86_56 0
dt_fFP2_1_86_40 0
dt_fFP2_1_17_93 0
dt_fFP2_1_17_80 0
dt_fFP2_1_17_68 0
dt_fFP2_1_17_67 0
dt_fFP2_1_17_63 0
dt_fFP2_1_17_92 0
dt_fFP2_1_17_82 0
dt_fFP2_1_17_66 0
dt_fFP2_1_17_56 0
dt_fFP2_1_17_40 0
dt_fFP2_1_130_93 0
dt_fFP2_1_130_80 0
dt_fFP2_1_130_68 0
dt_fFP2_1_130_67 0
dt_fFP2_1_130_63 0
dt_fFP2_1_130_92 0
dt_fFP2_1_130_82 0
dt_fFP2_1_130_66 0
dt_fFP2_1_130_56 0
dt_fFP2_1_130_40 0
dt_fFP2_1_208_93 0
dt_fFP2_1_208_80 0
dt_fFP2_1_208_68 0
dt_fFP2_1_208_67 0
dt_fFP2_1_208_63 0
dt_fFP2_1_208_92 0
dt_fFP2_1_208_82 0
dt_fFP2_1_208_66 0
dt_fFP2_1_208_56 0
dt_fFP2_1_208_40 0
dt_fFP2_1_214_93 0
dt_fFP2_1_214_80 0
dt_fFP2_1_214_68 0
dt_fFP2_1_214_67 0
dt_fFP2_1_214_63 0
dt_fFP2_1_214_92 0
dt_fFP2_1_214_82 0
dt_fFP2_1_214_66 0
dt_fFP2_1_214_56 0
dt_fFP2_1_214_40 0
dt_fFP2_1_146_93 0
dt_fFP2_1_146_80 0
dt_fFP2_1_146_68 0
dt_fFP2_1_146_67 0
dt_fFP2_1_146_63 0
dt_fFP2_1_146_92 0
dt_fFP2_1_146_82 0
dt_fFP2_1_146_66 0
dt_fFP2_1_146_56 0
dt_fFP2_1_146_40 0
